p wcnf 230 84 1
1 -1 11 
1 -2 12 
1 -3 13 
1 -4 14 
1 -5 15 
1 -6 16 
1 -7 17 
1 -8 18 
1 -9 19 
1 -10 20 
1 -21 1 
1 -22 1 
1 -23 1 
1 -24 1 
1 -25 1 
1 -26 1 
1 -27 1 
1 -28 1 
1 -29 1 
1 -30 1 
1 -21 31 
1 -21 32 
1 -21 33 
1 -21 34 
1 -21 35 
1 -21 36 
1 -21 37 
1 -21 38 
1 -21 39 
1 -22 32 
1 -22 33 
1 -22 34 
1 -22 35 
1 -22 36 
1 -22 37 
1 -22 38 
1 -22 39 
1 -22 40 
1 -23 33 
1 -23 34 
1 -23 35 
1 -23 36 
1 -23 37 
1 -23 38 
1 -23 39 
1 -23 40 
1 -23 41 
1 -24 34 
1 -24 35 
1 -24 36 
1 -24 37 
1 -24 38 
1 -24 39 
1 -24 40 
1 -24 41 
1 -24 42 
1 -25 35 
1 -25 36 
1 -25 37 
1 -25 38 
1 -25 39 
1 -25 40 
1 -25 41 
1 -25 42 
1 -25 43 
1 -26 36 
1 -26 37 
1 -26 38 
1 -26 39 
1 -26 40 
1 -26 41 
1 -26 42 
1 -26 43 
1 -26 44 
1 -27 37 
1 -27 38 
1 -27 39 
1 -27 40 
1 -27 41 
1 -27 42 
1 -27 43 
1 -27 44 
1 -27 45 
1 -28 38 
1 -28 39 
1 -28 40 
1 -28 41 
1 -28 42 
1 -28 43 
1 -28 44 
1 -28 45 
1 -28 46 
1 -29 39 
1 -29 40 
1 -29 41 
1 -29 42 
1 -29 43 
1 -29 44 
1 -29 45 
1 -29 46 
1 -29 47 
1 -30 40 
1 -30 41 
1 -30 42 
1 -30 43 
1 -30 44 
1 -30 45 
1 -30 46 
1 -30 47 
1 -30 48 
1 -49 1 
1 -50 1 
1 -51 1 
1 -52 1 
1 -53 1 
1 -54 1 
1 -55 1 
1 -56 1 
1 -57 1 
1 -58 1 
1 -49 59 
1 -49 60 
1 -49 61 
1 -49 62 
1 -49 63 
1 -49 64 
1 -49 65 
1 -49 66 
1 -49 67 
1 -49 68 
1 -50 60 
1 -50 61 
1 -50 62 
1 -50 63 
1 -50 64 
1 -50 65 
1 -50 66 
1 -50 67 
1 -50 68 
1 -50 69 
1 -51 61 
1 -51 62 
1 -51 63 
1 -51 64 
1 -51 65 
1 -51 66 
1 -51 67 
1 -51 68 
1 -51 69 
1 -51 70 
1 -52 62 
1 -52 63 
1 -52 64 
1 -52 65 
1 -52 66 
1 -52 67 
1 -52 68 
1 -52 69 
1 -52 70 
1 -52 71 
1 -53 63 
1 -53 64 
1 -53 65 
1 -53 66 
1 -53 67 
1 -53 68 
1 -53 69 
1 -53 70 
1 -53 71 
1 -53 72 
1 -54 64 
1 -54 65 
1 -54 66 
1 -54 67 
1 -54 68 
1 -54 69 
1 -54 70 
1 -54 71 
1 -54 72 
1 -54 73 
1 -55 65 
1 -55 66 
1 -55 67 
1 -55 68 
1 -55 69 
1 -55 70 
1 -55 71 
1 -55 72 
1 -55 73 
1 -55 74 
1 -56 66 
1 -56 67 
1 -56 68 
1 -56 69 
1 -56 70 
1 -56 71 
1 -56 72 
1 -56 73 
1 -56 74 
1 -56 75 
1 -57 67 
1 -57 68 
1 -57 69 
1 -57 70 
1 -57 71 
1 -57 72 
1 -57 73 
1 -57 74 
1 -57 75 
1 -57 76 
1 -58 68 
1 -58 69 
1 -58 70 
1 -58 71 
1 -58 72 
1 -58 73 
1 -58 74 
1 -58 75 
1 -58 76 
1 -58 77 
1 -78 21 
1 -79 21 
1 -78 80 
1 -78 81 
1 -79 81 
1 -79 82 
1 -83 49 78 
1 -83 84 
1 21 22 23 24 25 26 27 28 29 30 49 50 51 52 53 54 55 56 57 58 
1 21 22 23 24 25 26 27 28 29 30 49 50 51 52 53 54 55 56 57 58 78 79 
1 84 
